SG#B 150   OG (  164.4.1318)   BNS (      164.88)
  1.0
3.111  0  0
-1.5555  2.6942050311733885  0
0  0  4.988
   H He
    1 1 2 2
Direct
    0.33333333333333    0.66666666666667    0
    0.66666666666667    0.33333333333333    0.5
    0.33333333333333    0.66666666666667    0.6181
    0.66666666666667    0.33333333333333    0.1181
