SG#B 150   OG (  164.4.1318)   BNS (      164.88)
  1.0
    1    0.00000000000000    0.00000000000000
   0    1    0.00000000000000
    0.00000000000000    0.00000000000000   1
   Mn   Sr   Bi
    2    1    2
Direct
    0.33333333333333    0.66666666666667    0.4
    0.66666666666667    0.33333333333333    0.6
    0.00000000000000    0.00000000000000    0.5
    0.33333333333333    0.66666666666667    0.6
    0.66666666666667    0.33333333333333    0.4
