SG#B 150   OG (  164.4.1318)   BNS (      164.88)
  1.0
    4.82865585000000    0.00000000000000    0.00000000000000
   -2.41432792500000    4.18173863223234    0.00000000000000
    0.00000000000000    0.00000000000000   25.00000000000000
   Mn   Sr   Bi
    2    1    2
Direct
    0.33333333333333    0.66666666666667    0.39186625875205
    0.66666666666667    0.33333333333333    0.60813374124795
    0.00000000000000    0.00000000000000    0.50000000000000
    0.33333333333333    0.66666666666667    0.58734425293078
    0.66666666666667    0.33333333333333    0.41265574706922
